(declare-const x String)
(declare-const y String)
(assert (str.in.re x (re.+ (str.to.re "ad{' '=JLU"))))
(assert (str.in.re y (re.* (str.to.re "ab"))))
(assert (= (str.to.int x) 2))
(assert (= (str.to.int y) 14))
(check-sat)
(get-model)
